198
251
100
194
203
144
149
93
206
140
140
173
142
146
225
158
285
160
107
144
213
155
182
201
69
119
561
213
315
220
143
142
161
234
146
242
327
119
302
153
139
123
239
180
121
126
250
92
171
112
199
159
194
194
186
131
179
231
231
158
341
268
350
209
298
109
128
311
186
130
248
153
134
148
155
193
89
104
169
143
630
153
93
87
202
145
341
166
128
160
324
216
132
107
129
139
146
170
154
171
